c nIsolatedPIs 0
c maxPI 32
p cnf 91 178
c gate 33 16 -32 0
16 -33 0
-32 -33 0
-16 32 33 0
c gate 34 -16 32 0
-16 -34 0
32 -34 0
16 -32 34 0
c gate 35 -33 -34 0
-33 -35 0
-34 -35 0
33 34 35 0
c gate 36 15 -31 0
15 -36 0
-31 -36 0
-15 31 36 0
c gate 37 -14 30 0
-14 -37 0
30 -37 0
14 -30 37 0
c gate 38 -9 25 0
-9 -38 0
25 -38 0
9 -25 38 0
c gate 39 8 -24 0
8 -39 0
-24 -39 0
-8 24 39 0
c gate 40 -8 24 0
-8 -40 0
24 -40 0
8 -24 40 0
c gate 41 7 -23 0
7 -41 0
-23 -41 0
-7 23 41 0
c gate 42 -7 23 0
-7 -42 0
23 -42 0
7 -23 42 0
c gate 43 6 -22 0
6 -43 0
-22 -43 0
-6 22 43 0
c gate 44 -6 22 0
-6 -44 0
22 -44 0
6 -22 44 0
c gate 45 5 -21 0
5 -45 0
-21 -45 0
-5 21 45 0
c gate 46 -5 21 0
-5 -46 0
21 -46 0
5 -21 46 0
c gate 47 4 -20 0
4 -47 0
-20 -47 0
-4 20 47 0
c gate 48 -4 20 0
-4 -48 0
20 -48 0
4 -20 48 0
c gate 49 3 -19 0
3 -49 0
-19 -49 0
-3 19 49 0
c gate 50 -3 19 0
-3 -50 0
19 -50 0
3 -19 50 0
c gate 51 -1 17 0
-1 -51 0
17 -51 0
1 -17 51 0
c gate 52 18 51 0
18 -52 0
51 -52 0
-18 -51 52 0
c gate 53 2 -52 0
2 -53 0
-52 -53 0
-2 52 53 0
c gate 54 -18 -51 0
-18 -54 0
-51 -54 0
18 51 54 0
c gate 55 -53 -54 0
-53 -55 0
-54 -55 0
53 54 55 0
c gate 56 -50 -55 0
-50 -56 0
-55 -56 0
50 55 56 0
c gate 57 -49 -56 0
-49 -57 0
-56 -57 0
49 56 57 0
c gate 58 -48 -57 0
-48 -58 0
-57 -58 0
48 57 58 0
c gate 59 -47 -58 0
-47 -59 0
-58 -59 0
47 58 59 0
c gate 60 -46 -59 0
-46 -60 0
-59 -60 0
46 59 60 0
c gate 61 -45 -60 0
-45 -61 0
-60 -61 0
45 60 61 0
c gate 62 -44 -61 0
-44 -62 0
-61 -62 0
44 61 62 0
c gate 63 -43 -62 0
-43 -63 0
-62 -63 0
43 62 63 0
c gate 64 -42 -63 0
-42 -64 0
-63 -64 0
42 63 64 0
c gate 65 -41 -64 0
-41 -65 0
-64 -65 0
41 64 65 0
c gate 66 -40 -65 0
-40 -66 0
-65 -66 0
40 65 66 0
c gate 67 -39 -66 0
-39 -67 0
-66 -67 0
39 66 67 0
c gate 68 -38 -67 0
-38 -68 0
-67 -68 0
38 67 68 0
c gate 69 9 -25 0
9 -69 0
-25 -69 0
-9 25 69 0
c gate 70 10 -26 0
10 -70 0
-26 -70 0
-10 26 70 0
c gate 71 -69 -70 0
-69 -71 0
-70 -71 0
69 70 71 0
c gate 72 -68 71 0
-68 -72 0
71 -72 0
68 -71 72 0
c gate 73 -11 27 0
-11 -73 0
27 -73 0
11 -27 73 0
c gate 74 -10 26 0
-10 -74 0
26 -74 0
10 -26 74 0
c gate 75 -73 -74 0
-73 -75 0
-74 -75 0
73 74 75 0
c gate 76 -72 75 0
-72 -76 0
75 -76 0
72 -75 76 0
c gate 77 11 -27 0
11 -77 0
-27 -77 0
-11 27 77 0
c gate 78 12 -28 0
12 -78 0
-28 -78 0
-12 28 78 0
c gate 79 -77 -78 0
-77 -79 0
-78 -79 0
77 78 79 0
c gate 80 -76 79 0
-76 -80 0
79 -80 0
76 -79 80 0
c gate 81 -13 29 0
-13 -81 0
29 -81 0
13 -29 81 0
c gate 82 -12 28 0
-12 -82 0
28 -82 0
12 -28 82 0
c gate 83 -81 -82 0
-81 -83 0
-82 -83 0
81 82 83 0
c gate 84 -80 83 0
-80 -84 0
83 -84 0
80 -83 84 0
c gate 85 13 -29 0
13 -85 0
-29 -85 0
-13 29 85 0
c gate 86 14 -30 0
14 -86 0
-30 -86 0
-14 30 86 0
c gate 87 -85 -86 0
-85 -87 0
-86 -87 0
85 86 87 0
c gate 88 -84 87 0
-84 -88 0
87 -88 0
84 -87 88 0
c gate 89 -37 -88 0
-37 -89 0
-88 -89 0
37 88 89 0
c gate 90 36 -89 0
36 -90 0
-89 -90 0
-36 89 90 0
c gate 91 35 90 0
35 -91 0
90 -91 0
-35 -90 91 0
c PO
91 0
